c turning on binary mode checking
c parsing input formula with 259840 variables and 1039934 clauses
c finished parsing, read 3049885 bytes from proof file
c detected empty clause; start verification via backward checking
c 1252 of 1039934 clauses in core                            
c 311 of 127614 lemmas in core using 4766 resolution steps
c 0 RAT lemmas in core; 9 redundant literals in core lemmas
s VERIFIED
c verification time: 1.181 seconds
